(set-info :smt-lib-version 2.6)
(set-logic QF_S)
(set-info :source |
Generated by: Hung-En Wang, Tzung-Lin Tsai, Chun-Han Lin, Fang Yu, and Jie-Hong R. Jiang
Generated on: 2019-02-28
Generator: Stranger
Application: Security analysis of string manipulating web applications
Target solver: CVC4, Norn, Z3-str2
Publication:
Hung-En Wang, Tzung-Lin Tsai, Chun-Han Lin, Fang Yu, Jie-Hong R. Jiang:
String Analysis via Automata Manipulation with Logic Circuit Representation. CAV (1) 2016: 241-260.
|)
(set-info :license "https://creativecommons.org/licenses/by/4.0/")
(set-info :category "industrial")
(set-info :status unknown)

(declare-fun sigmaStar_0 () String)
(declare-fun sigmaStar_1 () String)
(declare-fun sigmaStar_2 () String)
(declare-fun x_9 () String)
(declare-fun epsilon () String)
(declare-fun literal_6 () String)
(declare-fun literal_4 () String)
(assert (= epsilon ""))
(assert (= literal_6 "\u{6e}\u{6f}\u{74}\u{73}\u{65}\u{74}\u{75}\u{70}"))
(assert (= literal_4 "\u{67}\u{65}\u{74}\u{41}\u{6c}\u{6c}\u{4c}\u{65}\u{61}\u{72}\u{6e}\u{69}\u{6e}\u{67}\u{44}\u{65}\u{73}\u{69}\u{67}\u{6e}\u{73}"))
(assert (or (= x_9 epsilon) (= x_9 sigmaStar_2) (= x_9 literal_6) (= x_9 literal_4)))
(assert (str.in_re x_9 (re.++ (re.* re.allchar) (re.++ (str.to_re "\u{5c}\u{3c}\u{53}\u{43}\u{52}\u{49}\u{50}\u{54}") (re.* re.allchar)))))
(check-sat)
(exit)
